cvc5/z3-regex-2-negative-reverse-rotate-graft_easy.smt2
(set-info :smt-lib-version 2.6)
(set-logic QF_SLIA)
(set-info :source |
Generated by: Dmitry Blotsky1, Federico Mora, Murphy Berzish, Yunhui Zheng, Ifaz Kabir, Vijay Ganesh, Zhengyang Lu
Generated on: 2018-01-24
Generator: StringFuzz
Application: Evaluate string solvers
Target solver: Z3str3, CVC4, Z3str2, Norn
Publications: Blotsky, D., Mora, F., Berzish, M., Zheng, Y., Kabir, I., & Ganesh, V. (2018). Stringfuzz: A fuzzer for string solvers. In CAV 2018.
Description: transformed by StringFuzz, a modular string and regex fuzzer, from an industrial benchmark
|)
(set-info :license "https://creativecommons.org/licenses/by/4.0/")
(set-info :category "random")
(set-info :status unknown)

(declare-const S String)
(declare-const part_1_3400 String)
(declare-const part_2_8966 String)
(assert (str.in_re S (re.++ re.allchar (str.to_re "bbbaaa"))))
(assert (not (str.in_re S (re.++ re.allchar (str.to_re "bbb")))))
(assert (= (str.split_at S "4" 2) "1il66zd"))
(assert (= (str.split_at S "4" 0) part_1_3400))
(assert (= (str.split_at S "4" 2) part_2_8966))
(assert (= (str.split_at S "4" 0) "1x9uzpus1"))
(check-sat)

(exit)
(get-model)
