cvc5/z3-regex-2-negative-reverse-rotate-graft_easy.txt
(define-fun S () String "Abbbaaa")
(define-fun part_1_3400 () String "1x9uzpus1")
(define-fun part_2_8966 () String "1il66zd")